units lj
atom_style atomic
boundary p p p
timestep 0.001

read_data collision.atoms


mass 1 1.0

pair_style lj/cut 1.1225
pair_coeff 1 1 1.0 1.0 1.1225

neighbor 0.3 bin
neigh_modify every 20 delay 0 check no

fix 1 all nve

dump id all atom 100 wca.lammpstrj

thermo 200
run 20000
